NAME : mtspf.pid3866.gtsp
TYPE : ATSP
DIMENSION : 45
EDGE_WEIGHT_TYPE : EXPLICIT
EDGE_WEIGHT_FORMAT : FULL_MATRIX
EDGE_WEIGHT_SECTION
999999 5368709 5368709 5368709 5368709 5368744 5368743 5368744 5368745 5368746 5368745 5368746 5368747 5368724 5368725 5368726 5368725 5368716 5368717 5368716 5368715 5368749 5368748 5368747 5368748 5368714 5368715 5368716 5368715 5368748 5368749 5368750 5368749 5368731 5368732 5368733 5368732 5368747 5368748 5368749 5368748 5368727 5368726 5368727 5368728 
5368709 999999 5368709 5368709 5368709 5368750 5368749 5368750 5368751 5368760 5368759 5368760 5368761 5368734 5368733 5368732 5368733 5368722 5368723 5368722 5368721 5368763 5368762 5368761 5368762 5368720 5368719 5368720 5368721 5368752 5368753 5368752 5368753 5368727 5368728 5368729 5368728 5368759 5368760 5368761 5368760 5368739 5368738 5368739 5368740 
5368709 5368709 999999 5368709 5368709 5368723 5368722 5368723 5368724 5368747 5368746 5368745 5368746 5368729 5368728 5368727 5368728 5368741 5368742 5368741 5368740 5368742 5368743 5368742 5368741 5368741 5368742 5368741 5368742 5368723 5368724 5368725 5368724 5368724 5368725 5368724 5368723 5368732 5368733 5368734 5368733 5368728 5368727 5368726 5368727 
5368709 5368709 5368709 999999 5368709 5368739 5368738 5368739 5368740 5368749 5368748 5368749 5368750 5368723 5368722 5368721 5368722 5368725 5368726 5368725 5368724 5368752 5368751 5368750 5368751 5368723 5368722 5368721 5368722 5368743 5368744 5368743 5368744 5368718 5368719 5368720 5368719 5368748 5368749 5368750 5368749 5368728 5368727 5368728 5368729 
5368709 5368709 5368709 5368709 999999 5368726 5368727 5368726 5368725 5368734 5368733 5368732 5368733 5368736 5368737 5368738 5368737 5368750 5368751 5368750 5368749 5368725 5368724 5368723 5368724 5368750 5368751 5368752 5368751 5368730 5368731 5368730 5368729 5368743 5368744 5368745 5368744 5368723 5368724 5368725 5368724 5368731 5368732 5368731 5368730 
5368709 5368709 5368709 5368709 5368709 999999 0 10737418 10737418 5368746 5368745 5368744 5368745 5368734 5368733 5368732 5368733 5368746 5368747 5368746 5368745 5368737 5368738 5368737 5368736 5368746 5368747 5368746 5368747 5368714 5368715 5368716 5368715 5368735 5368736 5368735 5368734 5368723 5368724 5368725 5368724 5368733 5368732 5368731 5368732 
5368709 5368709 5368709 5368709 5368709 10737418 999999 0 10737418 5368747 5368746 5368745 5368746 5368733 5368732 5368731 5368732 5368745 5368746 5368745 5368744 5368738 5368739 5368738 5368737 5368745 5368746 5368745 5368746 5368715 5368716 5368717 5368716 5368734 5368735 5368736 5368735 5368724 5368725 5368726 5368725 5368732 5368731 5368730 5368731 
5368709 5368709 5368709 5368709 5368709 10737418 10737418 999999 0 5368748 5368747 5368746 5368747 5368732 5368731 5368730 5368731 5368744 5368745 5368744 5368743 5368739 5368740 5368739 5368738 5368744 5368745 5368744 5368745 5368714 5368715 5368716 5368715 5368733 5368734 5368735 5368734 5368725 5368726 5368727 5368726 5368731 5368730 5368729 5368730 
5368709 5368709 5368709 5368709 5368709 0 10737418 10737418 999999 5368747 5368746 5368745 5368746 5368733 5368732 5368731 5368732 5368745 5368746 5368745 5368744 5368738 5368739 5368738 5368737 5368745 5368746 5368745 5368746 5368713 5368714 5368715 5368714 5368734 5368735 5368734 5368733 5368724 5368725 5368726 5368725 5368732 5368731 5368730 5368731 
5368709 5368709 5368709 5368709 5368709 5368746 5368747 5368746 5368745 999999 0 10737418 10737418 5368740 5368741 5368742 5368741 5368752 5368753 5368752 5368751 5368721 5368722 5368721 5368722 5368752 5368753 5368754 5368753 5368750 5368751 5368750 5368749 5368749 5368750 5368751 5368750 5368741 5368742 5368743 5368742 5368735 5368736 5368735 5368734 
5368709 5368709 5368709 5368709 5368709 5368747 5368748 5368747 5368746 10737418 999999 0 10737418 5368739 5368740 5368741 5368740 5368751 5368752 5368751 5368750 5368720 5368721 5368722 5368721 5368751 5368752 5368753 5368752 5368751 5368752 5368751 5368750 5368748 5368749 5368750 5368749 5368742 5368743 5368744 5368743 5368736 5368737 5368736 5368735 
5368709 5368709 5368709 5368709 5368709 5368746 5368747 5368746 5368745 10737418 10737418 999999 0 5368738 5368739 5368740 5368739 5368750 5368751 5368750 5368749 5368721 5368722 5368721 5368722 5368750 5368751 5368752 5368751 5368750 5368751 5368750 5368749 5368747 5368748 5368749 5368748 5368741 5368742 5368743 5368742 5368735 5368736 5368735 5368734 
5368709 5368709 5368709 5368709 5368709 5368745 5368746 5368745 5368744 0 10737418 10737418 999999 5368739 5368740 5368741 5368740 5368751 5368752 5368751 5368750 5368720 5368721 5368720 5368721 5368751 5368752 5368753 5368752 5368749 5368750 5368749 5368748 5368748 5368749 5368750 5368749 5368740 5368741 5368742 5368741 5368734 5368735 5368734 5368733 
5368709 5368709 5368709 5368709 5368709 5368732 5368731 5368732 5368733 5368740 5368739 5368740 5368741 999999 0 10737418 10737418 5368728 5368729 5368728 5368727 5368741 5368742 5368741 5368740 5368728 5368729 5368728 5368729 5368736 5368737 5368738 5368737 5368719 5368720 5368721 5368720 5368737 5368738 5368739 5368738 5368719 5368718 5368719 5368720 
5368709 5368709 5368709 5368709 5368709 5368733 5368732 5368733 5368734 5368739 5368738 5368739 5368740 10737418 999999 0 10737418 5368727 5368728 5368727 5368726 5368740 5368741 5368740 5368739 5368727 5368728 5368729 5368728 5368737 5368738 5368739 5368738 5368720 5368721 5368722 5368721 5368736 5368737 5368738 5368737 5368718 5368717 5368718 5368719 
5368709 5368709 5368709 5368709 5368709 5368732 5368731 5368732 5368733 5368740 5368739 5368740 5368741 10737418 10737418 999999 0 5368728 5368729 5368728 5368727 5368741 5368742 5368741 5368740 5368728 5368729 5368728 5368729 5368736 5368737 5368738 5368737 5368719 5368720 5368721 5368720 5368737 5368738 5368739 5368738 5368719 5368718 5368719 5368720 
5368709 5368709 5368709 5368709 5368709 5368731 5368730 5368731 5368732 5368741 5368740 5368741 5368742 0 10737418 10737418 999999 5368727 5368728 5368727 5368726 5368742 5368743 5368742 5368741 5368727 5368728 5368727 5368728 5368735 5368736 5368737 5368736 5368718 5368719 5368720 5368719 5368738 5368739 5368740 5368739 5368720 5368719 5368720 5368721 
5368709 5368709 5368709 5368709 5368709 5368744 5368743 5368744 5368745 5368750 5368749 5368750 5368751 5368726 5368727 5368726 5368727 999999 0 10737418 10737418 5368753 5368752 5368751 5368752 5368714 5368715 5368716 5368715 5368748 5368749 5368750 5368749 5368731 5368732 5368733 5368732 5368751 5368752 5368753 5368752 5368731 5368730 5368731 5368732 
5368709 5368709 5368709 5368709 5368709 5368745 5368744 5368745 5368746 5368751 5368750 5368751 5368752 5368727 5368728 5368727 5368728 10737418 999999 0 10737418 5368754 5368753 5368752 5368753 5368715 5368716 5368717 5368716 5368749 5368750 5368751 5368750 5368732 5368733 5368734 5368733 5368752 5368753 5368754 5368753 5368732 5368731 5368732 5368733 
5368709 5368709 5368709 5368709 5368709 5368746 5368745 5368746 5368747 5368752 5368751 5368752 5368753 5368728 5368729 5368728 5368729 10737418 10737418 999999 0 5368755 5368754 5368753 5368754 5368716 5368715 5368716 5368717 5368750 5368751 5368752 5368751 5368733 5368734 5368735 5368734 5368753 5368754 5368755 5368754 5368733 5368732 5368733 5368734 
5368709 5368709 5368709 5368709 5368709 5368745 5368744 5368745 5368746 5368751 5368750 5368751 5368752 5368727 5368728 5368727 5368728 0 10737418 10737418 999999 5368754 5368753 5368752 5368753 5368715 5368714 5368715 5368716 5368749 5368750 5368751 5368750 5368732 5368733 5368734 5368733 5368752 5368753 5368754 5368753 5368732 5368731 5368732 5368733 
5368709 5368709 5368709 5368709 5368709 5368737 5368738 5368737 5368736 5368721 5368722 5368721 5368722 5368739 5368740 5368741 5368740 5368753 5368754 5368753 5368752 999999 0 10737418 10737418 5368753 5368754 5368755 5368754 5368741 5368742 5368741 5368740 5368746 5368747 5368748 5368747 5368732 5368733 5368734 5368733 5368734 5368735 5368734 5368733 
5368709 5368709 5368709 5368709 5368709 5368738 5368739 5368738 5368737 5368720 5368721 5368720 5368721 5368740 5368741 5368742 5368741 5368754 5368755 5368754 5368753 10737418 999999 0 10737418 5368754 5368755 5368756 5368755 5368742 5368743 5368742 5368741 5368747 5368748 5368749 5368748 5368733 5368734 5368735 5368734 5368735 5368736 5368735 5368734 
5368709 5368709 5368709 5368709 5368709 5368739 5368740 5368739 5368738 5368721 5368722 5368721 5368722 5368741 5368742 5368743 5368742 5368753 5368754 5368753 5368752 10737418 10737418 999999 0 5368753 5368754 5368755 5368754 5368743 5368744 5368743 5368742 5368748 5368749 5368750 5368749 5368734 5368735 5368736 5368735 5368734 5368735 5368734 5368733 
5368709 5368709 5368709 5368709 5368709 5368738 5368739 5368738 5368737 5368722 5368721 5368720 5368721 5368740 5368741 5368742 5368741 5368752 5368753 5368752 5368751 0 10737418 10737418 999999 5368752 5368753 5368754 5368753 5368742 5368743 5368742 5368741 5368747 5368748 5368749 5368748 5368733 5368734 5368735 5368734 5368733 5368734 5368733 5368732 
5368709 5368709 5368709 5368709 5368709 5368746 5368745 5368746 5368747 5368752 5368751 5368752 5368753 5368728 5368729 5368728 5368729 5368716 5368717 5368716 5368715 5368755 5368754 5368753 5368754 999999 0 10737418 10737418 5368750 5368751 5368752 5368751 5368729 5368730 5368731 5368730 5368753 5368754 5368755 5368754 5368733 5368732 5368733 5368734 
5368709 5368709 5368709 5368709 5368709 5368745 5368744 5368745 5368746 5368751 5368750 5368751 5368752 5368727 5368728 5368727 5368728 5368715 5368716 5368715 5368714 5368754 5368753 5368752 5368753 10737418 999999 0 10737418 5368749 5368750 5368751 5368750 5368730 5368731 5368732 5368731 5368752 5368753 5368754 5368753 5368732 5368731 5368732 5368733 
5368709 5368709 5368709 5368709 5368709 5368746 5368745 5368746 5368747 5368752 5368751 5368752 5368753 5368728 5368729 5368728 5368729 5368716 5368715 5368714 5368715 5368755 5368754 5368753 5368754 10737418 10737418 999999 0 5368750 5368751 5368752 5368751 5368729 5368730 5368731 5368730 5368753 5368754 5368755 5368754 5368733 5368732 5368733 5368734 
5368709 5368709 5368709 5368709 5368709 5368745 5368744 5368745 5368746 5368753 5368752 5368753 5368754 5368729 5368728 5368727 5368728 5368717 5368716 5368715 5368716 5368756 5368755 5368754 5368755 0 10737418 10737418 999999 5368749 5368750 5368751 5368750 5368728 5368729 5368730 5368729 5368754 5368755 5368756 5368755 5368734 5368733 5368734 5368735 
5368709 5368709 5368709 5368709 5368709 5368716 5368715 5368714 5368715 5368750 5368749 5368748 5368749 5368738 5368737 5368736 5368737 5368750 5368751 5368750 5368749 5368741 5368742 5368741 5368740 5368750 5368751 5368750 5368751 999999 0 10737418 10737418 5368735 5368736 5368735 5368734 5368727 5368728 5368729 5368728 5368737 5368736 5368735 5368736 
5368709 5368709 5368709 5368709 5368709 5368715 5368714 5368713 5368714 5368751 5368750 5368749 5368750 5368737 5368736 5368735 5368736 5368749 5368750 5368749 5368748 5368742 5368743 5368742 5368741 5368749 5368750 5368749 5368750 10737418 999999 0 10737418 5368734 5368735 5368734 5368733 5368728 5368729 5368730 5368729 5368736 5368735 5368734 5368735 
5368709 5368709 5368709 5368709 5368709 5368716 5368715 5368714 5368715 5368752 5368751 5368750 5368751 5368738 5368737 5368736 5368737 5368750 5368751 5368750 5368749 5368743 5368744 5368743 5368742 5368750 5368751 5368750 5368751 10737418 10737418 999999 0 5368735 5368736 5368735 5368734 5368729 5368730 5368731 5368730 5368737 5368736 5368735 5368736 
5368709 5368709 5368709 5368709 5368709 5368717 5368716 5368715 5368716 5368751 5368750 5368749 5368750 5368739 5368738 5368737 5368738 5368751 5368752 5368751 5368750 5368742 5368743 5368742 5368741 5368751 5368752 5368751 5368752 0 10737418 10737418 999999 5368736 5368735 5368734 5368735 5368728 5368729 5368730 5368729 5368738 5368737 5368736 5368737 
5368709 5368709 5368709 5368709 5368709 5368735 5368734 5368733 5368734 5368749 5368748 5368749 5368750 5368721 5368720 5368719 5368720 5368733 5368734 5368733 5368732 5368748 5368749 5368748 5368747 5368731 5368730 5368729 5368730 5368733 5368734 5368735 5368734 999999 0 10737418 10737418 5368744 5368745 5368746 5368745 5368728 5368727 5368728 5368729 
5368709 5368709 5368709 5368709 5368709 5368734 5368733 5368734 5368735 5368748 5368747 5368748 5368749 5368720 5368719 5368718 5368719 5368732 5368733 5368732 5368731 5368747 5368748 5368747 5368746 5368730 5368729 5368728 5368729 5368734 5368735 5368736 5368735 10737418 999999 0 10737418 5368743 5368744 5368745 5368744 5368727 5368726 5368727 5368728 
5368709 5368709 5368709 5368709 5368709 5368735 5368734 5368735 5368736 5368749 5368748 5368749 5368750 5368721 5368720 5368719 5368720 5368733 5368734 5368733 5368732 5368748 5368749 5368748 5368747 5368731 5368730 5368729 5368730 5368735 5368736 5368735 5368736 10737418 10737418 999999 0 5368744 5368745 5368746 5368745 5368728 5368727 5368728 5368729 
5368709 5368709 5368709 5368709 5368709 5368736 5368735 5368734 5368735 5368750 5368749 5368750 5368751 5368722 5368721 5368720 5368721 5368734 5368735 5368734 5368733 5368749 5368750 5368749 5368748 5368732 5368731 5368730 5368731 5368734 5368735 5368734 5368735 0 10737418 10737418 999999 5368745 5368746 5368747 5368746 5368729 5368728 5368729 5368730 
5368709 5368709 5368709 5368709 5368709 5368725 5368726 5368725 5368724 5368743 5368742 5368741 5368742 5368737 5368738 5368739 5368738 5368753 5368754 5368753 5368752 5368734 5368735 5368734 5368733 5368753 5368754 5368755 5368754 5368729 5368730 5368729 5368728 5368744 5368745 5368746 5368745 999999 0 10737418 10737418 5368732 5368733 5368732 5368731 
5368709 5368709 5368709 5368709 5368709 5368724 5368725 5368724 5368723 5368742 5368741 5368740 5368741 5368736 5368737 5368738 5368737 5368752 5368753 5368752 5368751 5368733 5368734 5368733 5368732 5368752 5368753 5368754 5368753 5368728 5368729 5368728 5368727 5368743 5368744 5368745 5368744 10737418 999999 0 10737418 5368731 5368732 5368731 5368730 
5368709 5368709 5368709 5368709 5368709 5368725 5368726 5368725 5368724 5368743 5368742 5368741 5368742 5368737 5368738 5368739 5368738 5368753 5368754 5368753 5368752 5368734 5368735 5368734 5368733 5368753 5368754 5368755 5368754 5368729 5368730 5368729 5368728 5368744 5368745 5368746 5368745 10737418 10737418 999999 0 5368732 5368733 5368732 5368731 
5368709 5368709 5368709 5368709 5368709 5368726 5368727 5368726 5368725 5368744 5368743 5368742 5368743 5368738 5368739 5368740 5368739 5368754 5368755 5368754 5368753 5368735 5368736 5368735 5368734 5368754 5368755 5368756 5368755 5368730 5368731 5368730 5368729 5368745 5368746 5368747 5368746 0 10737418 10737418 999999 5368733 5368734 5368733 5368732 
5368709 5368709 5368709 5368709 5368709 5368731 5368730 5368731 5368732 5368735 5368734 5368733 5368734 5368719 5368720 5368721 5368720 5368733 5368734 5368733 5368732 5368734 5368733 5368732 5368733 5368733 5368734 5368735 5368734 5368735 5368736 5368737 5368736 5368728 5368729 5368730 5368729 5368730 5368731 5368732 5368731 999999 0 10737418 10737418 
5368709 5368709 5368709 5368709 5368709 5368732 5368731 5368732 5368733 5368736 5368735 5368734 5368735 5368718 5368719 5368720 5368719 5368732 5368733 5368732 5368731 5368735 5368734 5368733 5368734 5368732 5368733 5368734 5368733 5368736 5368737 5368738 5368737 5368727 5368728 5368729 5368728 5368731 5368732 5368733 5368732 10737418 999999 0 10737418 
5368709 5368709 5368709 5368709 5368709 5368731 5368730 5368731 5368732 5368737 5368736 5368735 5368736 5368717 5368718 5368719 5368718 5368731 5368732 5368731 5368730 5368736 5368735 5368734 5368735 5368731 5368732 5368733 5368732 5368735 5368736 5368737 5368736 5368726 5368727 5368728 5368727 5368732 5368733 5368734 5368733 10737418 10737418 999999 0 
5368709 5368709 5368709 5368709 5368709 5368730 5368729 5368730 5368731 5368736 5368735 5368734 5368735 5368718 5368719 5368720 5368719 5368732 5368733 5368732 5368731 5368735 5368734 5368733 5368734 5368732 5368733 5368734 5368733 5368734 5368735 5368736 5368735 5368727 5368728 5368729 5368728 5368731 5368732 5368733 5368732 0 10737418 10737418 999999 
EOF
